(declare-fun e () String)
(declare-fun c () String)
(declare-fun g () String)
(declare-fun b () String)
(declare-fun d () String)
(declare-fun a () String)
(assert (= (str.++ b e "a" b "h") (str.++ "df" a "hd" a)))
(assert (= (str.++ e c) (str.++ "cb" g g)))
(assert (= (str.++ d "a") c))

(check-sat)
